rust/resources/mps/missing_signs.mps
NAME        missing_signs
ROWS
 N  obj
 G  c003
COLUMNS
    MARK0000  'MARKER'                 'INTORG'
    x1        obj       3
    x1        c003      -5
    x2        obj       5
    x2        c003      -1
    x3        obj       6
    x3        c003      4
    x4        obj       9
    x4        c003      -2
    x5        obj       10
    x5        c003      2
    x6        obj       10
    x6        c003      -1
    MARK0001  'MARKER'                 'INTEND'
RHS
    RHS_V     c003      3
BOUNDS
 BV BOUND     x1
 BV BOUND     x2
 BV BOUND     x3
 BV BOUND     x4
 BV BOUND     x5
 BV BOUND     x6
ENDATA
